p wcnf 488 1192
w -2 0.367879 0
w 2 2.718282 0
w -3 0.367879 0
w 3 2.718282 0
w -4 0.367879 0
w 4 2.718282 0
w -5 0.367879 0
w 5 2.718282 0
w -7 0.367879 0
w 7 2.718282 0
w -8 0.367879 0
w 8 2.718282 0
w -9 0.367879 0
w 9 2.718282 0
w -11 0.367879 0
w 11 2.718282 0
w -12 0.367879 0
w 12 2.718282 0
w -13 0.367879 0
w 13 2.718282 0
w -15 0.367879 0
w 15 2.718282 0
w -16 0.367879 0
w 16 2.718282 0
w -17 0.367879 0
w 17 2.718282 0
w -19 0.367879 0
w 19 2.718282 0
w -20 0.367879 0
w 20 2.718282 0
w -21 0.367879 0
w 21 2.718282 0
w -22 0.367879 0
w 22 2.718282 0
w -23 0.367879 0
w 23 2.718282 0
w -24 0.367879 0
w 24 2.718282 0
w -26 0.367879 0
w 26 2.718282 0
w -27 0.367879 0
w 27 2.718282 0
w -29 0.367879 0
w 29 2.718282 0
w -30 0.367879 0
w 30 2.718282 0
w -32 0.367879 0
w 32 2.718282 0
w -33 0.367879 0
w 33 2.718282 0
w -35 0.367879 0
w 35 2.718282 0
w -36 0.367879 0
w 36 2.718282 0
w -37 0.367879 0
w 37 2.718282 0
w -38 0.367879 0
w 38 2.718282 0
w -40 0.367879 0
w 40 2.718282 0
w -41 0.367879 0
w 41 2.718282 0
w -43 0.367879 0
w 43 2.718282 0
w -44 0.367879 0
w 44 2.718282 0
w -45 0.367879 0
w 45 2.718282 0
w -46 0.367879 0
w 46 2.718282 0
w -48 0.367879 0
w 48 2.718282 0
w -49 0.367879 0
w 49 2.718282 0
w -50 0.367879 0
w 50 2.718282 0
w -52 0.367879 0
w 52 2.718282 0
w -53 0.367879 0
w 53 2.718282 0
w -54 0.367879 0
w 54 2.718282 0
w -55 0.367879 0
w 55 2.718282 0
w -57 0.367879 0
w 57 2.718282 0
w -58 0.367879 0
w 58 2.718282 0
w -59 0.367879 0
w 59 2.718282 0
w -60 0.367879 0
w 60 2.718282 0
w -62 0.367879 0
w 62 2.718282 0
w -64 0.367879 0
w 64 2.718282 0
w -66 0.367879 0
w 66 2.718282 0
w -67 0.367879 0
w 67 2.718282 0
w -68 0.367879 0
w 68 2.718282 0
w -69 0.367879 0
w 69 2.718282 0
w -70 0.367879 0
w 70 2.718282 0
w -72 0.367879 0
w 72 2.718282 0
w -73 0.367879 0
w 73 2.718282 0
w -74 0.367879 0
w 74 2.718282 0
w -75 0.367879 0
w 75 2.718282 0
w -77 0.367879 0
w 77 2.718282 0
w -78 0.367879 0
w 78 2.718282 0
w -81 0.367879 0
w 81 2.718282 0
w -82 0.367879 0
w 82 2.718282 0
w -83 0.367879 0
w 83 2.718282 0
w -85 0.367879 0
w 85 2.718282 0
w -86 0.367879 0
w 86 2.718282 0
w -87 0.367879 0
w 87 2.718282 0
w -88 0.367879 0
w 88 2.718282 0
w -90 0.367879 0
w 90 2.718282 0
w -91 0.367879 0
w 91 2.718282 0
w -92 0.367879 0
w 92 2.718282 0
w -94 0.367879 0
w 94 2.718282 0
w -95 0.367879 0
w 95 2.718282 0
w -97 0.367879 0
w 97 2.718282 0
w -98 0.367879 0
w 98 2.718282 0
w -99 0.367879 0
w 99 2.718282 0
w -101 0.367879 0
w 101 2.718282 0
w -102 0.367879 0
w 102 2.718282 0
w -103 0.367879 0
w 103 2.718282 0
w -104 0.367879 0
w 104 2.718282 0
w -106 0.367879 0
w 106 2.718282 0
w -107 0.367879 0
w 107 2.718282 0
w -108 0.367879 0
w 108 2.718282 0
w -109 0.367879 0
w 109 2.718282 0
w -110 0.367879 0
w 110 2.718282 0
w -111 0.367879 0
w 111 2.718282 0
w -113 0.367879 0
w 113 2.718282 0
w -115 0.367879 0
w 115 2.718282 0
w -117 0.367879 0
w 117 2.718282 0
w -119 0.367879 0
w 119 2.718282 0
w -120 0.367879 0
w 120 2.718282 0
w -122 0.367879 0
w 122 2.718282 0
w -123 0.367879 0
w 123 2.718282 0
w -125 0.367879 0
w 125 2.718282 0
w -126 0.367879 0
w 126 2.718282 0
w -127 0.367879 0
w 127 2.718282 0
w -129 0.367879 0
w 129 2.718282 0
w -130 0.367879 0
w 130 2.718282 0
w -131 0.367879 0
w 131 2.718282 0
w -132 0.367879 0
w 132 2.718282 0
w -134 0.367879 0
w 134 2.718282 0
w -136 0.367879 0
w 136 2.718282 0
w -137 0.367879 0
w 137 2.718282 0
w -139 0.367879 0
w 139 2.718282 0
w -140 0.367879 0
w 140 2.718282 0
w -142 0.367879 0
w 142 2.718282 0
w -143 0.367879 0
w 143 2.718282 0
w -144 0.367879 0
w 144 2.718282 0
w -145 0.367879 0
w 145 2.718282 0
w -146 0.367879 0
w 146 2.718282 0
w -148 0.367879 0
w 148 2.718282 0
w -149 0.367879 0
w 149 2.718282 0
w -150 0.367879 0
w 150 2.718282 0
w -152 0.367879 0
w 152 2.718282 0
w -153 0.367879 0
w 153 2.718282 0
w -154 0.367879 0
w 154 2.718282 0
w -156 0.367879 0
w 156 2.718282 0
w -157 0.367879 0
w 157 2.718282 0
w -158 0.367879 0
w 158 2.718282 0
w -160 0.367879 0
w 160 2.718282 0
w -161 0.367879 0
w 161 2.718282 0
w -162 0.367879 0
w 162 2.718282 0
w -164 0.367879 0
w 164 2.718282 0
w -165 0.367879 0
w 165 2.718282 0
w -166 0.367879 0
w 166 2.718282 0
w -167 0.367879 0
w 167 2.718282 0
w -169 0.367879 0
w 169 2.718282 0
w -170 0.367879 0
w 170 2.718282 0
w -171 0.367879 0
w 171 2.718282 0
w -173 0.367879 0
w 173 2.718282 0
w -174 0.367879 0
w 174 2.718282 0
w -175 0.367879 0
w 175 2.718282 0
w -177 0.367879 0
w 177 2.718282 0
w -178 0.367879 0
w 178 2.718282 0
w -180 0.367879 0
w 180 2.718282 0
w -181 0.367879 0
w 181 2.718282 0
w -183 0.367879 0
w 183 2.718282 0
w -184 0.367879 0
w 184 2.718282 0
w -186 0.367879 0
w 186 2.718282 0
w -188 0.367879 0
w 188 2.718282 0
w -189 0.367879 0
w 189 2.718282 0
w -190 0.367879 0
w 190 2.718282 0
w -193 0.367879 0
w 193 2.718282 0
w -194 0.367879 0
w 194 2.718282 0
w -195 0.367879 0
w 195 2.718282 0
w -197 0.367879 0
w 197 2.718282 0
w -198 0.367879 0
w 198 2.718282 0
w -199 0.367879 0
w 199 2.718282 0
w -200 0.367879 0
w 200 2.718282 0
w -202 0.367879 0
w 202 2.718282 0
w -203 0.367879 0
w 203 2.718282 0
w -204 0.367879 0
w 204 2.718282 0
w -205 0.367879 0
w 205 2.718282 0
w -207 0.367879 0
w 207 2.718282 0
w -208 0.367879 0
w 208 2.718282 0
w -209 0.367879 0
w 209 2.718282 0
w -211 0.367879 0
w 211 2.718282 0
w -212 0.367879 0
w 212 2.718282 0
w -213 0.367879 0
w 213 2.718282 0
w -215 0.367879 0
w 215 2.718282 0
w -216 0.367879 0
w 216 2.718282 0
w -217 0.367879 0
w 217 2.718282 0
w -220 0.367879 0
w 220 2.718282 0
w -221 0.367879 0
w 221 2.718282 0
w -223 0.367879 0
w 223 2.718282 0
w -224 0.367879 0
w 224 2.718282 0
w -225 0.367879 0
w 225 2.718282 0
w -228 0.367879 0
w 228 2.718282 0
w -230 0.367879 0
w 230 2.718282 0
w -231 0.367879 0
w 231 2.718282 0
w -233 0.367879 0
w 233 2.718282 0
w -234 0.367879 0
w 234 2.718282 0
w -235 0.367879 0
w 235 2.718282 0
w -237 0.367879 0
w 237 2.718282 0
w -238 0.367879 0
w 238 2.718282 0
w -239 0.367879 0
w 239 2.718282 0
w -241 0.367879 0
w 241 2.718282 0
w -242 0.367879 0
w 242 2.718282 0
w -243 0.367879 0
w 243 2.718282 0
w -245 0.367879 0
w 245 2.718282 0
w -246 0.367879 0
w 246 2.718282 0
w -247 0.367879 0
w 247 2.718282 0
w -250 0.367879 0
w 250 2.718282 0
w -252 0.367879 0
w 252 2.718282 0
w -254 0.367879 0
w 254 2.718282 0
w -255 0.367879 0
w 255 2.718282 0
w -257 0.367879 0
w 257 2.718282 0
w -258 0.367879 0
w 258 2.718282 0
w -260 0.367879 0
w 260 2.718282 0
w -261 0.367879 0
w 261 2.718282 0
w -262 0.367879 0
w 262 2.718282 0
w -265 0.367879 0
w 265 2.718282 0
w -266 0.367879 0
w 266 2.718282 0
w -267 0.367879 0
w 267 2.718282 0
w -268 0.367879 0
w 268 2.718282 0
w -269 0.367879 0
w 269 2.718282 0
w -271 0.367879 0
w 271 2.718282 0
w -273 0.367879 0
w 273 2.718282 0
w -275 0.367879 0
w 275 2.718282 0
w -276 0.367879 0
w 276 2.718282 0
w -278 0.367879 0
w 278 2.718282 0
w -280 0.367879 0
w 280 2.718282 0
w -281 0.367879 0
w 281 2.718282 0
w -283 0.367879 0
w 283 2.718282 0
w -284 0.367879 0
w 284 2.718282 0
w -285 0.367879 0
w 285 2.718282 0
w -287 0.367879 0
w 287 2.718282 0
w -289 0.367879 0
w 289 2.718282 0
w -290 0.367879 0
w 290 2.718282 0
w -292 0.367879 0
w 292 2.718282 0
w -294 0.367879 0
w 294 2.718282 0
w -295 0.367879 0
w 295 2.718282 0
w -297 0.367879 0
w 297 2.718282 0
w -299 0.367879 0
w 299 2.718282 0
w -301 0.367879 0
w 301 2.718282 0
w -302 0.367879 0
w 302 2.718282 0
w -303 0.367879 0
w 303 2.718282 0
w -305 0.367879 0
w 305 2.718282 0
w -306 0.367879 0
w 306 2.718282 0
w -307 0.367879 0
w 307 2.718282 0
w -310 0.367879 0
w 310 2.718282 0
w -312 0.367879 0
w 312 2.718282 0
w -314 0.367879 0
w 314 2.718282 0
w -315 0.367879 0
w 315 2.718282 0
w -317 0.367879 0
w 317 2.718282 0
w -318 0.367879 0
w 318 2.718282 0
w -319 0.367879 0
w 319 2.718282 0
w -321 0.367879 0
w 321 2.718282 0
w -322 0.367879 0
w 322 2.718282 0
w -323 0.367879 0
w 323 2.718282 0
w -325 0.367879 0
w 325 2.718282 0
w -328 0.367879 0
w 328 2.718282 0
w -330 0.367879 0
w 330 2.718282 0
w -331 0.367879 0
w 331 2.718282 0
w -333 0.367879 0
w 333 2.718282 0
w -334 0.367879 0
w 334 2.718282 0
w -335 0.367879 0
w 335 2.718282 0
w -336 0.367879 0
w 336 2.718282 0
w -340 0.367879 0
w 340 2.718282 0
w -342 0.367879 0
w 342 2.718282 0
w -344 0.367879 0
w 344 2.718282 0
w -346 0.367879 0
w 346 2.718282 0
w -347 0.367879 0
w 347 2.718282 0
w -349 0.367879 0
w 349 2.718282 0
w -350 0.367879 0
w 350 2.718282 0
w -351 0.367879 0
w 351 2.718282 0
w -353 0.367879 0
w 353 2.718282 0
w -354 0.367879 0
w 354 2.718282 0
w -355 0.367879 0
w 355 2.718282 0
w -357 0.367879 0
w 357 2.718282 0
w -359 0.367879 0
w 359 2.718282 0
w -361 0.367879 0
w 361 2.718282 0
w -363 0.367879 0
w 363 2.718282 0
w -365 0.367879 0
w 365 2.718282 0
w -367 0.367879 0
w 367 2.718282 0
w -368 0.367879 0
w 368 2.718282 0
w -370 0.367879 0
w 370 2.718282 0
w -371 0.367879 0
w 371 2.718282 0
w -373 0.367879 0
w 373 2.718282 0
w -375 0.367879 0
w 375 2.718282 0
w -379 0.367879 0
w 379 2.718282 0
w -380 0.367879 0
w 380 2.718282 0
w -381 0.367879 0
w 381 2.718282 0
w -382 0.367879 0
w 382 2.718282 0
w -383 0.367879 0
w 383 2.718282 0
w -386 0.367879 0
w 386 2.718282 0
w -388 0.367879 0
w 388 2.718282 0
w -391 0.367879 0
w 391 2.718282 0
w -392 0.367879 0
w 392 2.718282 0
w -393 0.367879 0
w 393 2.718282 0
w -395 0.367879 0
w 395 2.718282 0
w -397 0.367879 0
w 397 2.718282 0
w -399 0.367879 0
w 399 2.718282 0
w -400 0.367879 0
w 400 2.718282 0
w -402 0.367879 0
w 402 2.718282 0
w -403 0.367879 0
w 403 2.718282 0
w -404 0.367879 0
w 404 2.718282 0
w -407 0.367879 0
w 407 2.718282 0
w -409 0.367879 0
w 409 2.718282 0
w -412 0.367879 0
w 412 2.718282 0
w -414 0.367879 0
w 414 2.718282 0
w -418 0.367879 0
w 418 2.718282 0
w -428 0.367879 0
w 428 2.718282 0
w -430 0.367879 0
w 430 2.718282 0
w -431 0.367879 0
w 431 2.718282 0
w -434 0.367879 0
w 434 2.718282 0
w -435 0.367879 0
w 435 2.718282 0
w -436 0.367879 0
w 436 2.718282 0
w -438 0.367879 0
w 438 2.718282 0
w -440 0.367879 0
w 440 2.718282 0
w -442 0.367879 0
w 442 2.718282 0
w -443 0.367879 0
w 443 2.718282 0
w -445 0.367879 0
w 445 2.718282 0
w -448 0.367879 0
w 448 2.718282 0
w -451 0.367879 0
w 451 2.718282 0
w -455 0.367879 0
w 455 2.718282 0
w -460 0.367879 0
w 460 2.718282 0
w -471 0.367879 0
w 471 2.718282 0
w -475 0.367879 0
w 475 2.718282 0
w -483 0.367879 0
w 483 2.718282 0
2 1 124 0
2 -1 -124 0
-2 1 -124 0
-2 -1 124 0
3 1 372 0
3 -1 -372 0
-3 1 -372 0
-3 -1 372 0
4 1 419 0
4 -1 -419 0
-4 1 -419 0
-4 -1 419 0
5 1 473 0
5 -1 -473 0
-5 1 -473 0
-5 -1 473 0
7 6 168 0
7 -6 -168 0
-7 6 -168 0
-7 -6 168 0
8 6 176 0
8 -6 -176 0
-8 6 -176 0
-8 -6 176 0
9 6 461 0
9 -6 -461 0
-9 6 -461 0
-9 -6 461 0
11 10 42 0
11 -10 -42 0
-11 10 -42 0
-11 -10 42 0
12 10 179 0
12 -10 -179 0
-12 10 -179 0
-12 -10 179 0
13 10 476 0
13 -10 -476 0
-13 10 -476 0
-13 -10 476 0
15 14 272 0
15 -14 -272 0
-15 14 -272 0
-15 -14 272 0
16 14 293 0
16 -14 -293 0
-16 14 -293 0
-16 -14 293 0
17 14 345 0
17 -14 -345 0
-17 14 -345 0
-17 -14 345 0
19 18 80 0
19 -18 -80 0
-19 18 -80 0
-19 -18 80 0
20 18 222 0
20 -18 -222 0
-20 18 -222 0
-20 -18 222 0
21 18 236 0
21 -18 -236 0
-21 18 -236 0
-21 -18 236 0
22 18 326 0
22 -18 -326 0
-22 18 -326 0
-22 -18 326 0
23 18 352 0
23 -18 -352 0
-23 18 -352 0
-23 -18 352 0
24 18 417 0
24 -18 -417 0
-24 18 -417 0
-24 -18 417 0
26 25 185 0
26 -25 -185 0
-26 25 -185 0
-26 -25 185 0
27 25 219 0
27 -25 -219 0
-27 25 -219 0
-27 -25 219 0
29 28 227 0
29 -28 -227 0
-29 28 -227 0
-29 -28 227 0
30 28 478 0
30 -28 -478 0
-30 28 -478 0
-30 -28 478 0
32 31 470 0
32 -31 -470 0
-32 31 -470 0
-32 -31 470 0
33 31 474 0
33 -31 -474 0
-33 31 -474 0
-33 -31 474 0
35 34 105 0
35 -34 -105 0
-35 34 -105 0
-35 -34 105 0
36 34 179 0
36 -34 -179 0
-36 34 -179 0
-36 -34 179 0
37 34 415 0
37 -34 -415 0
-37 34 -415 0
-37 -34 415 0
38 34 416 0
38 -34 -416 0
-38 34 -416 0
-38 -34 416 0
40 39 277 0
40 -39 -277 0
-40 39 -277 0
-40 -39 277 0
41 39 452 0
41 -39 -452 0
-41 39 -452 0
-41 -39 452 0
43 42 151 0
43 -42 -151 0
-43 42 -151 0
-43 -42 151 0
44 42 232 0
44 -42 -232 0
-44 42 -232 0
-44 -42 232 0
45 42 286 0
45 -42 -286 0
-45 42 -286 0
-45 -42 286 0
46 42 291 0
46 -42 -291 0
-46 42 -291 0
-46 -42 291 0
48 47 159 0
48 -47 -159 0
-48 47 -159 0
-48 -47 159 0
49 47 308 0
49 -47 -308 0
-49 47 -308 0
-49 -47 308 0
50 47 390 0
50 -47 -390 0
-50 47 -390 0
-50 -47 390 0
52 51 93 0
52 -51 -93 0
-52 51 -93 0
-52 -51 93 0
53 51 182 0
53 -51 -182 0
-53 51 -182 0
-53 -51 182 0
54 51 206 0
54 -51 -206 0
-54 51 -206 0
-54 -51 206 0
55 51 309 0
55 -51 -309 0
-55 51 -309 0
-55 -51 309 0
57 56 138 0
57 -56 -138 0
-57 56 -138 0
-57 -56 138 0
58 56 416 0
58 -56 -416 0
-58 56 -416 0
-58 -56 416 0
59 56 419 0
59 -56 -419 0
-59 56 -419 0
-59 -56 419 0
60 56 472 0
60 -56 -472 0
-60 56 -472 0
-60 -56 472 0
62 61 124 0
62 -61 -124 0
-62 61 -124 0
-62 -61 124 0
64 63 452 0
64 -63 -452 0
-64 63 -452 0
-64 -63 452 0
66 65 182 0
66 -65 -182 0
-66 65 -182 0
-66 -65 182 0
67 65 236 0
67 -65 -236 0
-67 65 -236 0
-67 -65 236 0
68 65 390 0
68 -65 -390 0
-68 65 -390 0
-68 -65 390 0
69 65 415 0
69 -65 -415 0
-69 65 -415 0
-69 -65 415 0
70 65 420 0
70 -65 -420 0
-70 65 -420 0
-70 -65 420 0
72 71 163 0
72 -71 -163 0
-72 71 -163 0
-72 -71 163 0
73 71 253 0
73 -71 -253 0
-73 71 -253 0
-73 -71 253 0
74 71 390 0
74 -71 -390 0
-74 71 -390 0
-74 -71 390 0
75 71 426 0
75 -71 -426 0
-75 71 -426 0
-75 -71 426 0
77 76 282 0
77 -76 -282 0
-77 76 -282 0
-77 -76 282 0
78 76 366 0
78 -76 -366 0
-78 76 -366 0
-78 -76 366 0
81 80 291 0
81 -80 -291 0
-81 80 -291 0
-81 -80 291 0
82 80 345 0
82 -80 -345 0
-82 80 -345 0
-82 -80 345 0
83 80 394 0
83 -80 -394 0
-83 80 -394 0
-83 -80 394 0
85 84 141 0
85 -84 -141 0
-85 84 -141 0
-85 -84 141 0
86 84 345 0
86 -84 -345 0
-86 84 -345 0
-86 -84 345 0
87 84 364 0
87 -84 -364 0
-87 84 -364 0
-87 -84 364 0
88 84 478 0
88 -84 -478 0
-88 84 -478 0
-88 -84 478 0
90 89 210 0
90 -89 -210 0
-90 89 -210 0
-90 -89 210 0
91 89 298 0
91 -89 -298 0
-91 89 -298 0
-91 -89 298 0
92 89 476 0
92 -89 -476 0
-92 89 -476 0
-92 -89 476 0
94 93 256 0
94 -93 -256 0
-94 93 -256 0
-94 -93 256 0
95 93 444 0
95 -93 -444 0
-95 93 -444 0
-95 -93 444 0
97 96 128 0
97 -96 -128 0
-97 96 -128 0
-97 -96 128 0
98 96 329 0
98 -96 -329 0
-98 96 -329 0
-98 -96 329 0
99 96 474 0
99 -96 -474 0
-99 96 -474 0
-99 -96 474 0
101 100 264 0
101 -100 -264 0
-101 100 -264 0
-101 -100 264 0
102 100 358 0
102 -100 -358 0
-102 100 -358 0
-102 -100 358 0
103 100 423 0
103 -100 -423 0
-103 100 -423 0
-103 -100 423 0
104 100 470 0
104 -100 -470 0
-104 100 -470 0
-104 -100 470 0
106 105 138 0
106 -105 -138 0
-106 105 -138 0
-106 -105 138 0
107 105 343 0
107 -105 -343 0
-107 105 -343 0
-107 -105 343 0
108 105 348 0
108 -105 -348 0
-108 105 -348 0
-108 -105 348 0
109 105 352 0
109 -105 -352 0
-109 105 -352 0
-109 -105 352 0
110 105 410 0
110 -105 -410 0
-110 105 -410 0
-110 -105 410 0
111 105 462 0
111 -105 -462 0
-111 105 -462 0
-111 -105 462 0
113 112 456 0
113 -112 -456 0
-113 112 -456 0
-113 -112 456 0
115 114 214 0
115 -114 -214 0
-115 114 -214 0
-115 -114 214 0
117 116 437 0
117 -116 -437 0
-117 116 -437 0
-117 -116 437 0
119 118 341 0
119 -118 -341 0
-119 118 -341 0
-119 -118 341 0
120 118 446 0
120 -118 -446 0
-120 118 -446 0
-120 -118 446 0
122 121 253 0
122 -121 -253 0
-122 121 -253 0
-122 -121 253 0
123 121 308 0
123 -121 -308 0
-123 121 -308 0
-123 -121 308 0
125 124 135 0
125 -124 -135 0
-125 124 -135 0
-125 -124 135 0
126 124 300 0
126 -124 -300 0
-126 124 -300 0
-126 -124 300 0
127 124 458 0
127 -124 -458 0
-127 124 -458 0
-127 -124 458 0
129 128 227 0
129 -128 -227 0
-129 128 -227 0
-129 -128 227 0
130 128 248 0
130 -128 -248 0
-130 128 -248 0
-130 -128 248 0
131 128 411 0
131 -128 -411 0
-131 128 -411 0
-131 -128 411 0
132 128 478 0
132 -128 -478 0
-132 128 -478 0
-132 -128 478 0
134 133 232 0
134 -133 -232 0
-134 133 -232 0
-134 -133 232 0
136 135 362 0
136 -135 -362 0
-136 135 -362 0
-136 -135 362 0
137 135 468 0
137 -135 -468 0
-137 135 -468 0
-137 -135 468 0
139 138 168 0
139 -138 -168 0
-139 138 -168 0
-139 -138 168 0
140 138 481 0
140 -138 -481 0
-140 138 -481 0
-140 -138 481 0
142 141 210 0
142 -141 -210 0
-142 141 -210 0
-142 -141 210 0
143 141 263 0
143 -141 -263 0
-143 141 -263 0
-143 -141 263 0
144 141 401 0
144 -141 -401 0
-144 141 -401 0
-144 -141 401 0
145 141 463 0
145 -141 -463 0
-145 141 -463 0
-145 -141 463 0
146 141 480 0
146 -141 -480 0
-146 141 -480 0
-146 -141 480 0
148 147 441 0
148 -147 -441 0
-148 147 -441 0
-148 -147 441 0
149 147 461 0
149 -147 -461 0
-149 147 -461 0
-149 -147 461 0
150 147 466 0
150 -147 -466 0
-150 147 -466 0
-150 -147 466 0
152 151 308 0
152 -151 -308 0
-152 151 -308 0
-152 -151 308 0
153 151 450 0
153 -151 -450 0
-153 151 -450 0
-153 -151 450 0
154 151 482 0
154 -151 -482 0
-154 151 -482 0
-154 -151 482 0
156 155 339 0
156 -155 -339 0
-156 155 -339 0
-156 -155 339 0
157 155 384 0
157 -155 -384 0
-157 155 -384 0
-157 -155 384 0
158 155 476 0
158 -155 -476 0
-158 155 -476 0
-158 -155 476 0
160 159 339 0
160 -159 -339 0
-160 159 -339 0
-160 -159 339 0
161 159 415 0
161 -159 -415 0
-161 159 -415 0
-161 -159 415 0
162 159 465 0
162 -159 -465 0
-162 159 -465 0
-162 -159 465 0
164 163 191 0
164 -163 -191 0
-164 163 -191 0
-164 -163 191 0
165 163 206 0
165 -163 -206 0
-165 163 -206 0
-165 -163 206 0
166 163 274 0
166 -163 -274 0
-166 163 -274 0
-166 -163 274 0
167 163 348 0
167 -163 -348 0
-167 163 -348 0
-167 -163 348 0
169 168 244 0
169 -168 -244 0
-169 168 -244 0
-169 -168 244 0
170 168 311 0
170 -168 -311 0
-170 168 -311 0
-170 -168 311 0
171 168 420 0
171 -168 -420 0
-171 168 -420 0
-171 -168 420 0
173 172 364 0
173 -172 -364 0
-173 172 -364 0
-173 -172 364 0
174 172 411 0
174 -172 -411 0
-174 172 -411 0
-174 -172 411 0
175 172 437 0
175 -172 -437 0
-175 172 -437 0
-175 -172 437 0
177 176 219 0
177 -176 -219 0
-177 176 -219 0
-177 -176 219 0
178 176 390 0
178 -176 -390 0
-178 176 -390 0
-178 -176 390 0
180 179 364 0
180 -179 -364 0
-180 179 -364 0
-180 -179 364 0
181 179 385 0
181 -179 -385 0
-181 179 -385 0
-181 -179 385 0
183 182 253 0
183 -182 -253 0
-183 182 -253 0
-183 -182 253 0
184 182 472 0
184 -182 -472 0
-184 182 -472 0
-184 -182 472 0
186 185 406 0
186 -185 -406 0
-186 185 -406 0
-186 -185 406 0
188 187 343 0
188 -187 -343 0
-188 187 -343 0
-188 -187 343 0
189 187 405 0
189 -187 -405 0
-189 187 -405 0
-189 -187 405 0
190 187 433 0
190 -187 -433 0
-190 187 -433 0
-190 -187 433 0
193 192 343 0
193 -192 -343 0
-193 192 -343 0
-193 -192 343 0
194 192 441 0
194 -192 -441 0
-194 192 -441 0
-194 -192 441 0
195 192 485 0
195 -192 -485 0
-195 192 -485 0
-195 -192 485 0
197 196 201 0
197 -196 -201 0
-197 196 -201 0
-197 -196 201 0
198 196 219 0
198 -196 -219 0
-198 196 -219 0
-198 -196 219 0
199 196 277 0
199 -196 -277 0
-199 196 -277 0
-199 -196 277 0
200 196 456 0
200 -196 -456 0
-200 196 -456 0
-200 -196 456 0
202 201 263 0
202 -201 -263 0
-202 201 -263 0
-202 -201 263 0
203 201 376 0
203 -201 -376 0
-203 201 -376 0
-203 -201 376 0
204 201 398 0
204 -201 -398 0
-204 201 -398 0
-204 -201 398 0
205 201 476 0
205 -201 -476 0
-205 201 -476 0
-205 -201 476 0
207 206 348 0
207 -206 -348 0
-207 206 -348 0
-207 -206 348 0
208 206 478 0
208 -206 -478 0
-208 206 -478 0
-208 -206 478 0
209 206 482 0
209 -206 -482 0
-209 206 -482 0
-209 -206 482 0
211 210 286 0
211 -210 -286 0
-211 210 -286 0
-211 -210 286 0
212 210 421 0
212 -210 -421 0
-212 210 -421 0
-212 -210 421 0
213 210 488 0
213 -210 -488 0
-213 210 -488 0
-213 -210 488 0
215 214 248 0
215 -214 -248 0
-215 214 -248 0
-215 -214 248 0
216 214 362 0
216 -214 -362 0
-216 214 -362 0
-216 -214 362 0
217 214 413 0
217 -214 -413 0
-217 214 -413 0
-217 -214 413 0
220 219 441 0
220 -219 -441 0
-220 219 -441 0
-220 -219 441 0
221 219 477 0
221 -219 -477 0
-221 219 -477 0
-221 -219 477 0
223 222 311 0
223 -222 -311 0
-223 222 -311 0
-223 -222 311 0
224 222 447 0
224 -222 -447 0
-224 222 -447 0
-224 -222 447 0
225 222 473 0
225 -222 -473 0
-225 222 -473 0
-225 -222 473 0
228 227 457 0
228 -227 -457 0
-228 227 -457 0
-228 -227 457 0
230 229 236 0
230 -229 -236 0
-230 229 -236 0
-230 -229 236 0
231 229 405 0
231 -229 -405 0
-231 229 -405 0
-231 -229 405 0
233 232 288 0
233 -232 -288 0
-233 232 -288 0
-233 -232 288 0
234 232 417 0
234 -232 -417 0
-234 232 -417 0
-234 -232 417 0
235 232 424 0
235 -232 -424 0
-235 232 -424 0
-235 -232 424 0
237 236 437 0
237 -236 -437 0
-237 236 -437 0
-237 -236 437 0
238 236 454 0
238 -236 -454 0
-238 236 -454 0
-238 -236 454 0
239 236 474 0
239 -236 -474 0
-239 236 -474 0
-239 -236 474 0
241 240 293 0
241 -240 -293 0
-241 240 -293 0
-241 -240 293 0
242 240 387 0
242 -240 -387 0
-242 240 -387 0
-242 -240 387 0
243 240 396 0
243 -240 -396 0
-243 240 -396 0
-243 -240 396 0
245 244 263 0
245 -244 -263 0
-245 244 -263 0
-245 -244 263 0
246 244 309 0
246 -244 -309 0
-246 244 -309 0
-246 -244 309 0
247 244 482 0
247 -244 -482 0
-247 244 -482 0
-247 -244 482 0
250 249 488 0
250 -249 -488 0
-250 249 -488 0
-250 -249 488 0
252 251 427 0
252 -251 -427 0
-252 251 -427 0
-252 -251 427 0
254 253 279 0
254 -253 -279 0
-254 253 -279 0
-254 -253 279 0
255 253 433 0
255 -253 -433 0
-255 253 -433 0
-255 -253 433 0
257 256 304 0
257 -256 -304 0
-257 256 -304 0
-257 -256 304 0
258 256 473 0
258 -256 -473 0
-258 256 -473 0
-258 -256 473 0
260 259 288 0
260 -259 -288 0
-260 259 -288 0
-260 -259 288 0
261 259 316 0
261 -259 -316 0
-261 259 -316 0
-261 -259 316 0
262 259 339 0
262 -259 -339 0
-262 259 -339 0
-262 -259 339 0
265 264 313 0
265 -264 -313 0
-265 264 -313 0
-265 -264 313 0
266 264 364 0
266 -264 -364 0
-266 264 -364 0
-266 -264 364 0
267 264 468 0
267 -264 -468 0
-267 264 -468 0
-267 -264 468 0
268 264 481 0
268 -264 -481 0
-268 264 -481 0
-268 -264 481 0
269 264 487 0
269 -264 -487 0
-269 264 -487 0
-269 -264 487 0
271 270 320 0
271 -270 -320 0
-271 270 -320 0
-271 -270 320 0
273 272 378 0
273 -272 -378 0
-273 272 -378 0
-273 -272 378 0
275 274 327 0
275 -274 -327 0
-275 274 -327 0
-275 -274 327 0
276 274 485 0
276 -274 -485 0
-276 274 -485 0
-276 -274 485 0
278 277 487 0
278 -277 -487 0
-278 277 -487 0
-278 -277 487 0
280 279 337 0
280 -279 -337 0
-280 279 -337 0
-280 -279 337 0
281 279 439 0
281 -279 -439 0
-281 279 -439 0
-281 -279 439 0
283 282 326 0
283 -282 -326 0
-283 282 -326 0
-283 -282 326 0
284 282 396 0
284 -282 -396 0
-284 282 -396 0
-284 -282 396 0
285 282 429 0
285 -282 -429 0
-285 282 -429 0
-285 -282 429 0
287 286 447 0
287 -286 -447 0
-287 286 -447 0
-287 -286 447 0
289 288 419 0
289 -288 -419 0
-289 288 -419 0
-289 -288 419 0
290 288 485 0
290 -288 -485 0
-290 288 -485 0
-290 -288 485 0
292 291 420 0
292 -291 -420 0
-292 291 -420 0
-292 -291 420 0
294 293 387 0
294 -293 -387 0
-294 293 -387 0
-294 -293 387 0
295 293 421 0
295 -293 -421 0
-295 293 -421 0
-295 -293 421 0
297 296 389 0
297 -296 -389 0
-297 296 -389 0
-297 -296 389 0
299 298 482 0
299 -298 -482 0
-299 298 -482 0
-299 -298 482 0
301 300 358 0
301 -300 -358 0
-301 300 -358 0
-301 -300 358 0
302 300 369 0
302 -300 -369 0
-302 300 -369 0
-302 -300 369 0
303 300 423 0
303 -300 -423 0
-303 300 -423 0
-303 -300 423 0
305 304 356 0
305 -304 -356 0
-305 304 -356 0
-305 -304 356 0
306 304 405 0
306 -304 -405 0
-306 304 -405 0
-306 -304 405 0
307 304 465 0
307 -304 -465 0
-307 304 -465 0
-307 -304 465 0
310 309 484 0
310 -309 -484 0
-310 309 -484 0
-310 -309 484 0
312 311 389 0
312 -311 -389 0
-312 311 -389 0
-312 -311 389 0
314 313 408 0
314 -313 -408 0
-314 313 -408 0
-314 -313 408 0
315 313 484 0
315 -313 -484 0
-315 313 -484 0
-315 -313 484 0
317 316 372 0
317 -316 -372 0
-317 316 -372 0
-317 -316 372 0
318 316 416 0
318 -316 -416 0
-318 316 -416 0
-318 -316 416 0
319 316 469 0
319 -316 -469 0
-319 316 -469 0
-319 -316 469 0
321 320 352 0
321 -320 -352 0
-321 320 -352 0
-321 -320 352 0
322 320 416 0
322 -320 -416 0
-322 320 -416 0
-322 -320 416 0
323 320 481 0
323 -320 -481 0
-323 320 -481 0
-323 -320 481 0
325 324 332 0
325 -324 -332 0
-325 324 -332 0
-325 -324 332 0
328 327 467 0
328 -327 -467 0
-328 327 -467 0
-328 -327 467 0
330 329 466 0
330 -329 -466 0
-330 329 -466 0
-330 -329 466 0
331 329 481 0
331 -329 -481 0
-331 329 -481 0
-331 -329 481 0
333 332 356 0
333 -332 -356 0
-333 332 -356 0
-333 -332 356 0
334 332 398 0
334 -332 -398 0
-334 332 -398 0
-334 -332 398 0
335 332 410 0
335 -332 -410 0
-335 332 -410 0
-335 -332 410 0
336 332 419 0
336 -332 -419 0
-336 332 -419 0
-336 -332 419 0
340 339 463 0
340 -339 -463 0
-340 339 -463 0
-340 -339 463 0
342 341 467 0
342 -341 -467 0
-342 341 -467 0
-342 -341 467 0
344 343 453 0
344 -343 -453 0
-344 343 -453 0
-344 -343 453 0
346 345 377 0
346 -345 -377 0
-346 345 -377 0
-346 -345 377 0
347 345 408 0
347 -345 -408 0
-347 345 -408 0
-347 -345 408 0
349 348 360 0
349 -348 -360 0
-349 348 -360 0
-349 -348 360 0
350 348 408 0
350 -348 -408 0
-350 348 -408 0
-350 -348 408 0
351 348 429 0
351 -348 -429 0
-351 348 -429 0
-351 -348 429 0
353 352 408 0
353 -352 -408 0
-353 352 -408 0
-353 -352 408 0
354 352 423 0
354 -352 -423 0
-354 352 -423 0
-354 -352 423 0
355 352 476 0
355 -352 -476 0
-355 352 -476 0
-355 -352 476 0
357 356 378 0
357 -356 -378 0
-357 356 -378 0
-357 -356 378 0
359 358 433 0
359 -358 -433 0
-359 358 -433 0
-359 -358 433 0
361 360 384 0
361 -360 -384 0
-361 360 -384 0
-361 -360 384 0
363 362 372 0
363 -362 -372 0
-363 362 -372 0
-363 -362 372 0
365 364 446 0
365 -364 -446 0
-365 364 -446 0
-365 -364 446 0
367 366 424 0
367 -366 -424 0
-367 366 -424 0
-367 -366 424 0
368 366 482 0
368 -366 -482 0
-368 366 -482 0
-368 -366 482 0
370 369 408 0
370 -369 -408 0
-370 369 -408 0
-370 -369 408 0
371 369 459 0
371 -369 -459 0
-371 369 -459 0
-371 -369 459 0
373 372 398 0
373 -372 -398 0
-373 372 -398 0
-373 -372 398 0
375 374 449 0
375 -374 -449 0
-375 374 -449 0
-375 -374 449 0
379 378 396 0
379 -378 -396 0
-379 378 -396 0
-379 -378 396 0
380 378 398 0
380 -378 -398 0
-380 378 -398 0
-380 -378 398 0
381 378 427 0
381 -378 -427 0
-381 378 -427 0
-381 -378 427 0
382 378 464 0
382 -378 -464 0
-382 378 -464 0
-382 -378 464 0
383 378 467 0
383 -378 -467 0
-383 378 -467 0
-383 -378 467 0
386 385 465 0
386 -385 -465 0
-386 385 -465 0
-386 -385 465 0
388 387 446 0
388 -387 -446 0
-388 387 -446 0
-388 -387 446 0
391 390 410 0
391 -390 -410 0
-391 390 -410 0
-391 -390 410 0
392 390 417 0
392 -390 -417 0
-392 390 -417 0
-392 -390 417 0
393 390 472 0
393 -390 -472 0
-393 390 -472 0
-393 -390 472 0
395 394 480 0
395 -394 -480 0
-395 394 -480 0
-395 -394 480 0
397 396 456 0
397 -396 -456 0
-397 396 -456 0
-397 -396 456 0
399 398 421 0
399 -398 -421 0
-399 398 -421 0
-399 -398 421 0
400 398 479 0
400 -398 -479 0
-400 398 -479 0
-400 -398 479 0
402 401 413 0
402 -401 -413 0
-402 401 -413 0
-402 -401 413 0
403 401 433 0
403 -401 -433 0
-403 401 -433 0
-403 -401 433 0
404 401 469 0
404 -401 -469 0
-404 401 -469 0
-404 -401 469 0
407 406 432 0
407 -406 -432 0
-407 406 -432 0
-407 -406 432 0
409 408 468 0
409 -408 -468 0
-409 408 -468 0
-409 -408 468 0
412 411 447 0
412 -411 -447 0
-412 411 -447 0
-412 -411 447 0
414 413 452 0
414 -413 -452 0
-414 413 -452 0
-414 -413 452 0
418 417 447 0
418 -417 -447 0
-418 417 -447 0
-418 -417 447 0
428 427 473 0
428 -427 -473 0
-428 427 -473 0
-428 -427 473 0
430 429 444 0
430 -429 -444 0
-430 429 -444 0
-430 -429 444 0
431 429 477 0
431 -429 -477 0
-431 429 -477 0
-431 -429 477 0
434 433 446 0
434 -433 -446 0
-434 433 -446 0
-434 -433 446 0
435 433 474 0
435 -433 -474 0
-435 433 -474 0
-435 -433 474 0
436 433 485 0
436 -433 -485 0
-436 433 -485 0
-436 -433 485 0
438 437 470 0
438 -437 -470 0
-438 437 -470 0
-438 -437 470 0
440 439 447 0
440 -439 -447 0
-440 439 -447 0
-440 -439 447 0
442 441 456 0
442 -441 -456 0
-442 441 -456 0
-442 -441 456 0
443 441 486 0
443 -441 -486 0
-443 441 -486 0
-443 -441 486 0
445 444 467 0
445 -444 -467 0
-445 444 -467 0
-445 -444 467 0
448 447 482 0
448 -447 -482 0
-448 447 -482 0
-448 -447 482 0
451 450 463 0
451 -450 -463 0
-451 450 -463 0
-451 -450 463 0
455 454 480 0
455 -454 -480 0
-455 454 -480 0
-455 -454 480 0
460 459 466 0
460 -459 -466 0
-460 459 -466 0
-460 -459 466 0
471 470 478 0
471 -470 -478 0
-471 470 -478 0
-471 -470 478 0
475 474 479 0
475 -474 -479 0
-475 474 -479 0
-475 -474 479 0
483 482 488 0
483 -482 -488 0
-483 482 -488 0
-483 -482 488 0
